NAME scene_select
ROWS  
 N TotalCost        
 E assign_scene_def[2]        
 E assign_scene_def[5]        
 E assign_scene_def[7]        
 E assign_scene_def[10]        
 E assign_scene_def[11]        
 E assign_scene_def[13]        
 E assign_scene_def[15]        
 E assign_scene_def[17]        
 E assign_scene_def[4]        
 E assign_scene_def[9]        
 E assign_scene_def[16]        
 E assign_scene_def[19]        
 E assign_scene_def[3]        
 E assign_scene_def[6]        
 E assign_scene_def[14]        
 E assign_scene_def[18]        
 E assign_scene_def[8]        
 E assign_scene_def[12]        
 E assign_scene_def[1]        
 E num_scenes_per_day[1]        
 E num_scenes_per_day[2]        
 E num_scenes_per_day[3]        
 E num_scenes_per_day[4]        
 L link[1,2,1]        
 L link[1,5,1]        
 L link[1,7,1]        
 L link[1,10,1]        
 L link[1,11,1]        
 L link[1,13,1]        
 L link[1,15,1]        
 L link[1,17,1]        
 L link[2,4,1]        
 L link[2,7,1]        
 L link[2,9,1]        
 L link[2,10,1]        
 L link[2,13,1]        
 L link[2,16,1]        
 L link[2,19,1]        
 L link[3,3,1]        
 L link[3,6,1]        
 L link[3,9,1]        
 L link[3,10,1]        
 L link[3,14,1]        
 L link[3,16,1]        
 L link[3,17,1]        
 L link[3,18,1]        
 L link[4,2,1]        
 L link[4,8,1]        
 L link[4,12,1]        
 L link[4,13,1]        
 L link[4,15,1]        
 L link[5,2,1]        
 L link[5,3,1]        
 L link[5,12,1]        
 L link[5,17,1]        
 L link[6,1,1]        
 L link[6,2,1]        
 L link[6,12,1]        
 L link[6,13,1]        
 L link[6,18,1]        
 L link[7,5,1]        
 L link[7,6,1]        
 L link[7,14,1]        
 L link[8,3,1]        
 L link[8,5,1]        
 L link[8,6,1]        
 L link[8,9,1]        
 L link[8,10,1]        
 L link[8,12,1]        
 L link[8,15,1]        
 L link[8,16,1]        
 L link[8,18,1]        
 L link[9,3,1]        
 L link[9,4,1]        
 L link[9,5,1]        
 L link[9,8,1]        
 L link[9,9,1]        
 L link[9,16,1]        
 L link[10,5,1]        
 L link[10,6,1]        
 L link[11,6,1]        
 L link[11,9,1]        
 L link[11,12,1]        
 L link[11,15,1]        
 L link[11,18,1]        
 L link[1,2,2]        
 L link[1,5,2]        
 L link[1,7,2]        
 L link[1,10,2]        
 L link[1,11,2]        
 L link[1,13,2]        
 L link[1,15,2]        
 L link[1,17,2]        
 L link[2,4,2]        
 L link[2,7,2]        
 L link[2,9,2]        
 L link[2,10,2]        
 L link[2,13,2]        
 L link[2,16,2]        
 L link[2,19,2]        
 L link[3,3,2]        
 L link[3,6,2]        
 L link[3,9,2]        
 L link[3,10,2]        
 L link[3,14,2]        
 L link[3,16,2]        
 L link[3,17,2]        
 L link[3,18,2]        
 L link[4,2,2]        
 L link[4,8,2]        
 L link[4,12,2]        
 L link[4,13,2]        
 L link[4,15,2]        
 L link[5,2,2]        
 L link[5,3,2]        
 L link[5,12,2]        
 L link[5,17,2]        
 L link[6,1,2]        
 L link[6,2,2]        
 L link[6,12,2]        
 L link[6,13,2]        
 L link[6,18,2]        
 L link[7,5,2]        
 L link[7,6,2]        
 L link[7,14,2]        
 L link[8,3,2]        
 L link[8,5,2]        
 L link[8,6,2]        
 L link[8,9,2]        
 L link[8,10,2]        
 L link[8,12,2]        
 L link[8,15,2]        
 L link[8,16,2]        
 L link[8,18,2]        
 L link[9,3,2]        
 L link[9,4,2]        
 L link[9,5,2]        
 L link[9,8,2]        
 L link[9,9,2]        
 L link[9,16,2]        
 L link[10,5,2]        
 L link[10,6,2]        
 L link[11,6,2]        
 L link[11,9,2]        
 L link[11,12,2]        
 L link[11,15,2]        
 L link[11,18,2]        
 L link[1,2,3]        
 L link[1,5,3]        
 L link[1,7,3]        
 L link[1,10,3]        
 L link[1,11,3]        
 L link[1,13,3]        
 L link[1,15,3]        
 L link[1,17,3]        
 L link[2,4,3]        
 L link[2,7,3]        
 L link[2,9,3]        
 L link[2,10,3]        
 L link[2,13,3]        
 L link[2,16,3]        
 L link[2,19,3]        
 L link[3,3,3]        
 L link[3,6,3]        
 L link[3,9,3]        
 L link[3,10,3]        
 L link[3,14,3]        
 L link[3,16,3]        
 L link[3,17,3]        
 L link[3,18,3]        
 L link[4,2,3]        
 L link[4,8,3]        
 L link[4,12,3]        
 L link[4,13,3]        
 L link[4,15,3]        
 L link[5,2,3]        
 L link[5,3,3]        
 L link[5,12,3]        
 L link[5,17,3]        
 L link[6,1,3]        
 L link[6,2,3]        
 L link[6,12,3]        
 L link[6,13,3]        
 L link[6,18,3]        
 L link[7,5,3]        
 L link[7,6,3]        
 L link[7,14,3]        
 L link[8,3,3]        
 L link[8,5,3]        
 L link[8,6,3]        
 L link[8,9,3]        
 L link[8,10,3]        
 L link[8,12,3]        
 L link[8,15,3]        
 L link[8,16,3]        
 L link[8,18,3]        
 L link[9,3,3]        
 L link[9,4,3]        
 L link[9,5,3]        
 L link[9,8,3]        
 L link[9,9,3]        
 L link[9,16,3]        
 L link[10,5,3]        
 L link[10,6,3]        
 L link[11,6,3]        
 L link[11,9,3]        
 L link[11,12,3]        
 L link[11,15,3]        
 L link[11,18,3]        
 L link[1,2,4]        
 L link[1,5,4]        
 L link[1,7,4]        
 L link[1,10,4]        
 L link[1,11,4]        
 L link[1,13,4]        
 L link[1,15,4]        
 L link[1,17,4]        
 L link[2,4,4]        
 L link[2,7,4]        
 L link[2,9,4]        
 L link[2,10,4]        
 L link[2,13,4]        
 L link[2,16,4]        
 L link[2,19,4]        
 L link[3,3,4]        
 L link[3,6,4]        
 L link[3,9,4]        
 L link[3,10,4]        
 L link[3,14,4]        
 L link[3,16,4]        
 L link[3,17,4]        
 L link[3,18,4]        
 L link[4,2,4]        
 L link[4,8,4]        
 L link[4,12,4]        
 L link[4,13,4]        
 L link[4,15,4]        
 L link[5,2,4]        
 L link[5,3,4]        
 L link[5,12,4]        
 L link[5,17,4]        
 L link[6,1,4]        
 L link[6,2,4]        
 L link[6,12,4]        
 L link[6,13,4]        
 L link[6,18,4]        
 L link[7,5,4]        
 L link[7,6,4]        
 L link[7,14,4]        
 L link[8,3,4]        
 L link[8,5,4]        
 L link[8,6,4]        
 L link[8,9,4]        
 L link[8,10,4]        
 L link[8,12,4]        
 L link[8,15,4]        
 L link[8,16,4]        
 L link[8,18,4]        
 L link[9,3,4]        
 L link[9,4,4]        
 L link[9,5,4]        
 L link[9,8,4]        
 L link[9,9,4]        
 L link[9,16,4]        
 L link[10,5,4]        
 L link[10,6,4]        
 L link[11,6,4]        
 L link[11,9,4]        
 L link[11,12,4]        
 L link[11,15,4]        
 L link[11,18,4]        
COLUMNS  
   .MRK0000 'MARKER'   'INTORG'  
   AssignActor[1,1] TotalCost 26481 link[1,2,1] -1
   AssignActor[1,1] link[1,5,1] -1 link[1,7,1] -1
   AssignActor[1,1] link[1,10,1] -1 link[1,11,1] -1
   AssignActor[1,1] link[1,13,1] -1 link[1,15,1] -1
   AssignActor[1,1] link[1,17,1] -1    
   AssignActor[2,1] TotalCost 25043 link[2,4,1] -1
   AssignActor[2,1] link[2,7,1] -1 link[2,9,1] -1
   AssignActor[2,1] link[2,10,1] -1 link[2,13,1] -1
   AssignActor[2,1] link[2,16,1] -1 link[2,19,1] -1
   AssignActor[3,1] TotalCost 30310 link[3,3,1] -1
   AssignActor[3,1] link[3,6,1] -1 link[3,9,1] -1
   AssignActor[3,1] link[3,10,1] -1 link[3,14,1] -1
   AssignActor[3,1] link[3,16,1] -1 link[3,17,1] -1
   AssignActor[3,1] link[3,18,1] -1    
   AssignActor[4,1] TotalCost 4085 link[4,2,1] -1
   AssignActor[4,1] link[4,8,1] -1 link[4,12,1] -1
   AssignActor[4,1] link[4,13,1] -1 link[4,15,1] -1
   AssignActor[5,1] TotalCost 7562 link[5,2,1] -1
   AssignActor[5,1] link[5,3,1] -1 link[5,12,1] -1
   AssignActor[5,1] link[5,17,1] -1    
   AssignActor[6,1] TotalCost 9381 link[6,1,1] -1
   AssignActor[6,1] link[6,2,1] -1 link[6,12,1] -1
   AssignActor[6,1] link[6,13,1] -1 link[6,18,1] -1
   AssignActor[7,1] TotalCost 8770 link[7,5,1] -1
   AssignActor[7,1] link[7,6,1] -1 link[7,14,1] -1
   AssignActor[8,1] TotalCost 5788 link[8,3,1] -1
   AssignActor[8,1] link[8,5,1] -1 link[8,6,1] -1
   AssignActor[8,1] link[8,9,1] -1 link[8,10,1] -1
   AssignActor[8,1] link[8,12,1] -1 link[8,15,1] -1
   AssignActor[8,1] link[8,16,1] -1 link[8,18,1] -1
   AssignActor[9,1] TotalCost 7423 link[9,3,1] -1
   AssignActor[9,1] link[9,4,1] -1 link[9,5,1] -1
   AssignActor[9,1] link[9,8,1] -1 link[9,9,1] -1
   AssignActor[9,1] link[9,16,1] -1    
   AssignActor[10,1] TotalCost 3303 link[10,5,1] -1
   AssignActor[10,1] link[10,6,1] -1    
   AssignActor[11,1] TotalCost 9593 link[11,6,1] -1
   AssignActor[11,1] link[11,9,1] -1 link[11,12,1] -1
   AssignActor[11,1] link[11,15,1] -1 link[11,18,1] -1
   AssignActor[1,2] TotalCost 26481 link[1,2,2] -1
   AssignActor[1,2] link[1,5,2] -1 link[1,7,2] -1
   AssignActor[1,2] link[1,10,2] -1 link[1,11,2] -1
   AssignActor[1,2] link[1,13,2] -1 link[1,15,2] -1
   AssignActor[1,2] link[1,17,2] -1    
   AssignActor[2,2] TotalCost 25043 link[2,4,2] -1
   AssignActor[2,2] link[2,7,2] -1 link[2,9,2] -1
   AssignActor[2,2] link[2,10,2] -1 link[2,13,2] -1
   AssignActor[2,2] link[2,16,2] -1 link[2,19,2] -1
   AssignActor[3,2] TotalCost 30310 link[3,3,2] -1
   AssignActor[3,2] link[3,6,2] -1 link[3,9,2] -1
   AssignActor[3,2] link[3,10,2] -1 link[3,14,2] -1
   AssignActor[3,2] link[3,16,2] -1 link[3,17,2] -1
   AssignActor[3,2] link[3,18,2] -1    
   AssignActor[4,2] TotalCost 4085 link[4,2,2] -1
   AssignActor[4,2] link[4,8,2] -1 link[4,12,2] -1
   AssignActor[4,2] link[4,13,2] -1 link[4,15,2] -1
   AssignActor[5,2] TotalCost 7562 link[5,2,2] -1
   AssignActor[5,2] link[5,3,2] -1 link[5,12,2] -1
   AssignActor[5,2] link[5,17,2] -1    
   AssignActor[6,2] TotalCost 9381 link[6,1,2] -1
   AssignActor[6,2] link[6,2,2] -1 link[6,12,2] -1
   AssignActor[6,2] link[6,13,2] -1 link[6,18,2] -1
   AssignActor[7,2] TotalCost 8770 link[7,5,2] -1
   AssignActor[7,2] link[7,6,2] -1 link[7,14,2] -1
   AssignActor[8,2] TotalCost 5788 link[8,3,2] -1
   AssignActor[8,2] link[8,5,2] -1 link[8,6,2] -1
   AssignActor[8,2] link[8,9,2] -1 link[8,10,2] -1
   AssignActor[8,2] link[8,12,2] -1 link[8,15,2] -1
   AssignActor[8,2] link[8,16,2] -1 link[8,18,2] -1
   AssignActor[9,2] TotalCost 7423 link[9,3,2] -1
   AssignActor[9,2] link[9,4,2] -1 link[9,5,2] -1
   AssignActor[9,2] link[9,8,2] -1 link[9,9,2] -1
   AssignActor[9,2] link[9,16,2] -1    
   AssignActor[10,2] TotalCost 3303 link[10,5,2] -1
   AssignActor[10,2] link[10,6,2] -1    
   AssignActor[11,2] TotalCost 9593 link[11,6,2] -1
   AssignActor[11,2] link[11,9,2] -1 link[11,12,2] -1
   AssignActor[11,2] link[11,15,2] -1 link[11,18,2] -1
   AssignActor[1,3] TotalCost 26481 link[1,2,3] -1
   AssignActor[1,3] link[1,5,3] -1 link[1,7,3] -1
   AssignActor[1,3] link[1,10,3] -1 link[1,11,3] -1
   AssignActor[1,3] link[1,13,3] -1 link[1,15,3] -1
   AssignActor[1,3] link[1,17,3] -1    
   AssignActor[2,3] TotalCost 25043 link[2,4,3] -1
   AssignActor[2,3] link[2,7,3] -1 link[2,9,3] -1
   AssignActor[2,3] link[2,10,3] -1 link[2,13,3] -1
   AssignActor[2,3] link[2,16,3] -1 link[2,19,3] -1
   AssignActor[3,3] TotalCost 30310 link[3,3,3] -1
   AssignActor[3,3] link[3,6,3] -1 link[3,9,3] -1
   AssignActor[3,3] link[3,10,3] -1 link[3,14,3] -1
   AssignActor[3,3] link[3,16,3] -1 link[3,17,3] -1
   AssignActor[3,3] link[3,18,3] -1    
   AssignActor[4,3] TotalCost 4085 link[4,2,3] -1
   AssignActor[4,3] link[4,8,3] -1 link[4,12,3] -1
   AssignActor[4,3] link[4,13,3] -1 link[4,15,3] -1
   AssignActor[5,3] TotalCost 7562 link[5,2,3] -1
   AssignActor[5,3] link[5,3,3] -1 link[5,12,3] -1
   AssignActor[5,3] link[5,17,3] -1    
   AssignActor[6,3] TotalCost 9381 link[6,1,3] -1
   AssignActor[6,3] link[6,2,3] -1 link[6,12,3] -1
   AssignActor[6,3] link[6,13,3] -1 link[6,18,3] -1
   AssignActor[7,3] TotalCost 8770 link[7,5,3] -1
   AssignActor[7,3] link[7,6,3] -1 link[7,14,3] -1
   AssignActor[8,3] TotalCost 5788 link[8,3,3] -1
   AssignActor[8,3] link[8,5,3] -1 link[8,6,3] -1
   AssignActor[8,3] link[8,9,3] -1 link[8,10,3] -1
   AssignActor[8,3] link[8,12,3] -1 link[8,15,3] -1
   AssignActor[8,3] link[8,16,3] -1 link[8,18,3] -1
   AssignActor[9,3] TotalCost 7423 link[9,3,3] -1
   AssignActor[9,3] link[9,4,3] -1 link[9,5,3] -1
   AssignActor[9,3] link[9,8,3] -1 link[9,9,3] -1
   AssignActor[9,3] link[9,16,3] -1    
   AssignActor[10,3] TotalCost 3303 link[10,5,3] -1
   AssignActor[10,3] link[10,6,3] -1    
   AssignActor[11,3] TotalCost 9593 link[11,6,3] -1
   AssignActor[11,3] link[11,9,3] -1 link[11,12,3] -1
   AssignActor[11,3] link[11,15,3] -1 link[11,18,3] -1
   AssignActor[1,4] TotalCost 26481 link[1,2,4] -1
   AssignActor[1,4] link[1,5,4] -1 link[1,7,4] -1
   AssignActor[1,4] link[1,10,4] -1 link[1,11,4] -1
   AssignActor[1,4] link[1,13,4] -1 link[1,15,4] -1
   AssignActor[1,4] link[1,17,4] -1    
   AssignActor[2,4] TotalCost 25043 link[2,4,4] -1
   AssignActor[2,4] link[2,7,4] -1 link[2,9,4] -1
   AssignActor[2,4] link[2,10,4] -1 link[2,13,4] -1
   AssignActor[2,4] link[2,16,4] -1 link[2,19,4] -1
   AssignActor[3,4] TotalCost 30310 link[3,3,4] -1
   AssignActor[3,4] link[3,6,4] -1 link[3,9,4] -1
   AssignActor[3,4] link[3,10,4] -1 link[3,14,4] -1
   AssignActor[3,4] link[3,16,4] -1 link[3,17,4] -1
   AssignActor[3,4] link[3,18,4] -1    
   AssignActor[4,4] TotalCost 4085 link[4,2,4] -1
   AssignActor[4,4] link[4,8,4] -1 link[4,12,4] -1
   AssignActor[4,4] link[4,13,4] -1 link[4,15,4] -1
   AssignActor[5,4] TotalCost 7562 link[5,2,4] -1
   AssignActor[5,4] link[5,3,4] -1 link[5,12,4] -1
   AssignActor[5,4] link[5,17,4] -1    
   AssignActor[6,4] TotalCost 9381 link[6,1,4] -1
   AssignActor[6,4] link[6,2,4] -1 link[6,12,4] -1
   AssignActor[6,4] link[6,13,4] -1 link[6,18,4] -1
   AssignActor[7,4] TotalCost 8770 link[7,5,4] -1
   AssignActor[7,4] link[7,6,4] -1 link[7,14,4] -1
   AssignActor[8,4] TotalCost 5788 link[8,3,4] -1
   AssignActor[8,4] link[8,5,4] -1 link[8,6,4] -1
   AssignActor[8,4] link[8,9,4] -1 link[8,10,4] -1
   AssignActor[8,4] link[8,12,4] -1 link[8,15,4] -1
   AssignActor[8,4] link[8,16,4] -1 link[8,18,4] -1
   AssignActor[9,4] TotalCost 7423 link[9,3,4] -1
   AssignActor[9,4] link[9,4,4] -1 link[9,5,4] -1
   AssignActor[9,4] link[9,8,4] -1 link[9,9,4] -1
   AssignActor[9,4] link[9,16,4] -1    
   AssignActor[10,4] TotalCost 3303 link[10,5,4] -1
   AssignActor[10,4] link[10,6,4] -1    
   AssignActor[11,4] TotalCost 9593 link[11,6,4] -1
   AssignActor[11,4] link[11,9,4] -1 link[11,12,4] -1
   AssignActor[11,4] link[11,15,4] -1 link[11,18,4] -1
   AssignScene[2,1] assign_scene_def[2] 1 num_scenes_per_day[1] 1
   AssignScene[2,1] link[1,2,1] 1 link[4,2,1] 1
   AssignScene[2,1] link[5,2,1] 1 link[6,2,1] 1
   AssignScene[5,1] assign_scene_def[5] 1 num_scenes_per_day[1] 1
   AssignScene[5,1] link[1,5,1] 1 link[7,5,1] 1
   AssignScene[5,1] link[8,5,1] 1 link[9,5,1] 1
   AssignScene[5,1] link[10,5,1] 1    
   AssignScene[7,1] assign_scene_def[7] 1 num_scenes_per_day[1] 1
   AssignScene[7,1] link[1,7,1] 1 link[2,7,1] 1
   AssignScene[10,1] assign_scene_def[10] 1 num_scenes_per_day[1] 1
   AssignScene[10,1] link[1,10,1] 1 link[2,10,1] 1
   AssignScene[10,1] link[3,10,1] 1 link[8,10,1] 1
   AssignScene[11,1] assign_scene_def[11] 1 num_scenes_per_day[1] 1
   AssignScene[11,1] link[1,11,1] 1    
   AssignScene[13,1] assign_scene_def[13] 1 num_scenes_per_day[1] 1
   AssignScene[13,1] link[1,13,1] 1 link[2,13,1] 1
   AssignScene[13,1] link[4,13,1] 1 link[6,13,1] 1
   AssignScene[15,1] assign_scene_def[15] 1 num_scenes_per_day[1] 1
   AssignScene[15,1] link[1,15,1] 1 link[4,15,1] 1
   AssignScene[15,1] link[8,15,1] 1 link[11,15,1] 1
   AssignScene[17,1] assign_scene_def[17] 1 num_scenes_per_day[1] 1
   AssignScene[17,1] link[1,17,1] 1 link[3,17,1] 1
   AssignScene[17,1] link[5,17,1] 1    
   AssignScene[4,1] assign_scene_def[4] 1 num_scenes_per_day[1] 1
   AssignScene[4,1] link[2,4,1] 1 link[9,4,1] 1
   AssignScene[9,1] assign_scene_def[9] 1 num_scenes_per_day[1] 1
   AssignScene[9,1] link[2,9,1] 1 link[3,9,1] 1
   AssignScene[9,1] link[8,9,1] 1 link[9,9,1] 1
   AssignScene[9,1] link[11,9,1] 1    
   AssignScene[16,1] assign_scene_def[16] 1 num_scenes_per_day[1] 1
   AssignScene[16,1] link[2,16,1] 1 link[3,16,1] 1
   AssignScene[16,1] link[8,16,1] 1 link[9,16,1] 1
   AssignScene[19,1] assign_scene_def[19] 1 num_scenes_per_day[1] 1
   AssignScene[19,1] link[2,19,1] 1    
   AssignScene[3,1] assign_scene_def[3] 1 num_scenes_per_day[1] 1
   AssignScene[3,1] link[3,3,1] 1 link[5,3,1] 1
   AssignScene[3,1] link[8,3,1] 1 link[9,3,1] 1
   AssignScene[6,1] assign_scene_def[6] 1 num_scenes_per_day[1] 1
   AssignScene[6,1] link[3,6,1] 1 link[7,6,1] 1
   AssignScene[6,1] link[8,6,1] 1 link[10,6,1] 1
   AssignScene[6,1] link[11,6,1] 1    
   AssignScene[14,1] assign_scene_def[14] 1 num_scenes_per_day[1] 1
   AssignScene[14,1] link[3,14,1] 1 link[7,14,1] 1
   AssignScene[18,1] assign_scene_def[18] 1 num_scenes_per_day[1] 1
   AssignScene[18,1] link[3,18,1] 1 link[6,18,1] 1
   AssignScene[18,1] link[8,18,1] 1 link[11,18,1] 1
   AssignScene[8,1] assign_scene_def[8] 1 num_scenes_per_day[1] 1
   AssignScene[8,1] link[4,8,1] 1 link[9,8,1] 1
   AssignScene[12,1] assign_scene_def[12] 1 num_scenes_per_day[1] 1
   AssignScene[12,1] link[4,12,1] 1 link[5,12,1] 1
   AssignScene[12,1] link[6,12,1] 1 link[8,12,1] 1
   AssignScene[12,1] link[11,12,1] 1    
   AssignScene[1,1] assign_scene_def[1] 1 num_scenes_per_day[1] 1
   AssignScene[1,1] link[6,1,1] 1    
   AssignScene[2,2] assign_scene_def[2] 1 num_scenes_per_day[2] 1
   AssignScene[2,2] link[1,2,2] 1 link[4,2,2] 1
   AssignScene[2,2] link[5,2,2] 1 link[6,2,2] 1
   AssignScene[5,2] assign_scene_def[5] 1 num_scenes_per_day[2] 1
   AssignScene[5,2] link[1,5,2] 1 link[7,5,2] 1
   AssignScene[5,2] link[8,5,2] 1 link[9,5,2] 1
   AssignScene[5,2] link[10,5,2] 1    
   AssignScene[7,2] assign_scene_def[7] 1 num_scenes_per_day[2] 1
   AssignScene[7,2] link[1,7,2] 1 link[2,7,2] 1
   AssignScene[10,2] assign_scene_def[10] 1 num_scenes_per_day[2] 1
   AssignScene[10,2] link[1,10,2] 1 link[2,10,2] 1
   AssignScene[10,2] link[3,10,2] 1 link[8,10,2] 1
   AssignScene[11,2] assign_scene_def[11] 1 num_scenes_per_day[2] 1
   AssignScene[11,2] link[1,11,2] 1    
   AssignScene[13,2] assign_scene_def[13] 1 num_scenes_per_day[2] 1
   AssignScene[13,2] link[1,13,2] 1 link[2,13,2] 1
   AssignScene[13,2] link[4,13,2] 1 link[6,13,2] 1
   AssignScene[15,2] assign_scene_def[15] 1 num_scenes_per_day[2] 1
   AssignScene[15,2] link[1,15,2] 1 link[4,15,2] 1
   AssignScene[15,2] link[8,15,2] 1 link[11,15,2] 1
   AssignScene[17,2] assign_scene_def[17] 1 num_scenes_per_day[2] 1
   AssignScene[17,2] link[1,17,2] 1 link[3,17,2] 1
   AssignScene[17,2] link[5,17,2] 1    
   AssignScene[4,2] assign_scene_def[4] 1 num_scenes_per_day[2] 1
   AssignScene[4,2] link[2,4,2] 1 link[9,4,2] 1
   AssignScene[9,2] assign_scene_def[9] 1 num_scenes_per_day[2] 1
   AssignScene[9,2] link[2,9,2] 1 link[3,9,2] 1
   AssignScene[9,2] link[8,9,2] 1 link[9,9,2] 1
   AssignScene[9,2] link[11,9,2] 1    
   AssignScene[16,2] assign_scene_def[16] 1 num_scenes_per_day[2] 1
   AssignScene[16,2] link[2,16,2] 1 link[3,16,2] 1
   AssignScene[16,2] link[8,16,2] 1 link[9,16,2] 1
   AssignScene[19,2] assign_scene_def[19] 1 num_scenes_per_day[2] 1
   AssignScene[19,2] link[2,19,2] 1    
   AssignScene[3,2] assign_scene_def[3] 1 num_scenes_per_day[2] 1
   AssignScene[3,2] link[3,3,2] 1 link[5,3,2] 1
   AssignScene[3,2] link[8,3,2] 1 link[9,3,2] 1
   AssignScene[6,2] assign_scene_def[6] 1 num_scenes_per_day[2] 1
   AssignScene[6,2] link[3,6,2] 1 link[7,6,2] 1
   AssignScene[6,2] link[8,6,2] 1 link[10,6,2] 1
   AssignScene[6,2] link[11,6,2] 1    
   AssignScene[14,2] assign_scene_def[14] 1 num_scenes_per_day[2] 1
   AssignScene[14,2] link[3,14,2] 1 link[7,14,2] 1
   AssignScene[18,2] assign_scene_def[18] 1 num_scenes_per_day[2] 1
   AssignScene[18,2] link[3,18,2] 1 link[6,18,2] 1
   AssignScene[18,2] link[8,18,2] 1 link[11,18,2] 1
   AssignScene[8,2] assign_scene_def[8] 1 num_scenes_per_day[2] 1
   AssignScene[8,2] link[4,8,2] 1 link[9,8,2] 1
   AssignScene[12,2] assign_scene_def[12] 1 num_scenes_per_day[2] 1
   AssignScene[12,2] link[4,12,2] 1 link[5,12,2] 1
   AssignScene[12,2] link[6,12,2] 1 link[8,12,2] 1
   AssignScene[12,2] link[11,12,2] 1    
   AssignScene[1,2] assign_scene_def[1] 1 num_scenes_per_day[2] 1
   AssignScene[1,2] link[6,1,2] 1    
   AssignScene[2,3] assign_scene_def[2] 1 num_scenes_per_day[3] 1
   AssignScene[2,3] link[1,2,3] 1 link[4,2,3] 1
   AssignScene[2,3] link[5,2,3] 1 link[6,2,3] 1
   AssignScene[5,3] assign_scene_def[5] 1 num_scenes_per_day[3] 1
   AssignScene[5,3] link[1,5,3] 1 link[7,5,3] 1
   AssignScene[5,3] link[8,5,3] 1 link[9,5,3] 1
   AssignScene[5,3] link[10,5,3] 1    
   AssignScene[7,3] assign_scene_def[7] 1 num_scenes_per_day[3] 1
   AssignScene[7,3] link[1,7,3] 1 link[2,7,3] 1
   AssignScene[10,3] assign_scene_def[10] 1 num_scenes_per_day[3] 1
   AssignScene[10,3] link[1,10,3] 1 link[2,10,3] 1
   AssignScene[10,3] link[3,10,3] 1 link[8,10,3] 1
   AssignScene[11,3] assign_scene_def[11] 1 num_scenes_per_day[3] 1
   AssignScene[11,3] link[1,11,3] 1    
   AssignScene[13,3] assign_scene_def[13] 1 num_scenes_per_day[3] 1
   AssignScene[13,3] link[1,13,3] 1 link[2,13,3] 1
   AssignScene[13,3] link[4,13,3] 1 link[6,13,3] 1
   AssignScene[15,3] assign_scene_def[15] 1 num_scenes_per_day[3] 1
   AssignScene[15,3] link[1,15,3] 1 link[4,15,3] 1
   AssignScene[15,3] link[8,15,3] 1 link[11,15,3] 1
   AssignScene[17,3] assign_scene_def[17] 1 num_scenes_per_day[3] 1
   AssignScene[17,3] link[1,17,3] 1 link[3,17,3] 1
   AssignScene[17,3] link[5,17,3] 1    
   AssignScene[4,3] assign_scene_def[4] 1 num_scenes_per_day[3] 1
   AssignScene[4,3] link[2,4,3] 1 link[9,4,3] 1
   AssignScene[9,3] assign_scene_def[9] 1 num_scenes_per_day[3] 1
   AssignScene[9,3] link[2,9,3] 1 link[3,9,3] 1
   AssignScene[9,3] link[8,9,3] 1 link[9,9,3] 1
   AssignScene[9,3] link[11,9,3] 1    
   AssignScene[16,3] assign_scene_def[16] 1 num_scenes_per_day[3] 1
   AssignScene[16,3] link[2,16,3] 1 link[3,16,3] 1
   AssignScene[16,3] link[8,16,3] 1 link[9,16,3] 1
   AssignScene[19,3] assign_scene_def[19] 1 num_scenes_per_day[3] 1
   AssignScene[19,3] link[2,19,3] 1    
   AssignScene[3,3] assign_scene_def[3] 1 num_scenes_per_day[3] 1
   AssignScene[3,3] link[3,3,3] 1 link[5,3,3] 1
   AssignScene[3,3] link[8,3,3] 1 link[9,3,3] 1
   AssignScene[6,3] assign_scene_def[6] 1 num_scenes_per_day[3] 1
   AssignScene[6,3] link[3,6,3] 1 link[7,6,3] 1
   AssignScene[6,3] link[8,6,3] 1 link[10,6,3] 1
   AssignScene[6,3] link[11,6,3] 1    
   AssignScene[14,3] assign_scene_def[14] 1 num_scenes_per_day[3] 1
   AssignScene[14,3] link[3,14,3] 1 link[7,14,3] 1
   AssignScene[18,3] assign_scene_def[18] 1 num_scenes_per_day[3] 1
   AssignScene[18,3] link[3,18,3] 1 link[6,18,3] 1
   AssignScene[18,3] link[8,18,3] 1 link[11,18,3] 1
   AssignScene[8,3] assign_scene_def[8] 1 num_scenes_per_day[3] 1
   AssignScene[8,3] link[4,8,3] 1 link[9,8,3] 1
   AssignScene[12,3] assign_scene_def[12] 1 num_scenes_per_day[3] 1
   AssignScene[12,3] link[4,12,3] 1 link[5,12,3] 1
   AssignScene[12,3] link[6,12,3] 1 link[8,12,3] 1
   AssignScene[12,3] link[11,12,3] 1    
   AssignScene[1,3] assign_scene_def[1] 1 num_scenes_per_day[3] 1
   AssignScene[1,3] link[6,1,3] 1    
   AssignScene[2,4] assign_scene_def[2] 1 num_scenes_per_day[4] 1
   AssignScene[2,4] link[1,2,4] 1 link[4,2,4] 1
   AssignScene[2,4] link[5,2,4] 1 link[6,2,4] 1
   AssignScene[5,4] assign_scene_def[5] 1 num_scenes_per_day[4] 1
   AssignScene[5,4] link[1,5,4] 1 link[7,5,4] 1
   AssignScene[5,4] link[8,5,4] 1 link[9,5,4] 1
   AssignScene[5,4] link[10,5,4] 1    
   AssignScene[7,4] assign_scene_def[7] 1 num_scenes_per_day[4] 1
   AssignScene[7,4] link[1,7,4] 1 link[2,7,4] 1
   AssignScene[10,4] assign_scene_def[10] 1 num_scenes_per_day[4] 1
   AssignScene[10,4] link[1,10,4] 1 link[2,10,4] 1
   AssignScene[10,4] link[3,10,4] 1 link[8,10,4] 1
   AssignScene[11,4] assign_scene_def[11] 1 num_scenes_per_day[4] 1
   AssignScene[11,4] link[1,11,4] 1    
   AssignScene[13,4] assign_scene_def[13] 1 num_scenes_per_day[4] 1
   AssignScene[13,4] link[1,13,4] 1 link[2,13,4] 1
   AssignScene[13,4] link[4,13,4] 1 link[6,13,4] 1
   AssignScene[15,4] assign_scene_def[15] 1 num_scenes_per_day[4] 1
   AssignScene[15,4] link[1,15,4] 1 link[4,15,4] 1
   AssignScene[15,4] link[8,15,4] 1 link[11,15,4] 1
   AssignScene[17,4] assign_scene_def[17] 1 num_scenes_per_day[4] 1
   AssignScene[17,4] link[1,17,4] 1 link[3,17,4] 1
   AssignScene[17,4] link[5,17,4] 1    
   AssignScene[4,4] assign_scene_def[4] 1 num_scenes_per_day[4] 1
   AssignScene[4,4] link[2,4,4] 1 link[9,4,4] 1
   AssignScene[9,4] assign_scene_def[9] 1 num_scenes_per_day[4] 1
   AssignScene[9,4] link[2,9,4] 1 link[3,9,4] 1
   AssignScene[9,4] link[8,9,4] 1 link[9,9,4] 1
   AssignScene[9,4] link[11,9,4] 1    
   AssignScene[16,4] assign_scene_def[16] 1 num_scenes_per_day[4] 1
   AssignScene[16,4] link[2,16,4] 1 link[3,16,4] 1
   AssignScene[16,4] link[8,16,4] 1 link[9,16,4] 1
   AssignScene[19,4] assign_scene_def[19] 1 num_scenes_per_day[4] 1
   AssignScene[19,4] link[2,19,4] 1    
   AssignScene[3,4] assign_scene_def[3] 1 num_scenes_per_day[4] 1
   AssignScene[3,4] link[3,3,4] 1 link[5,3,4] 1
   AssignScene[3,4] link[8,3,4] 1 link[9,3,4] 1
   AssignScene[6,4] assign_scene_def[6] 1 num_scenes_per_day[4] 1
   AssignScene[6,4] link[3,6,4] 1 link[7,6,4] 1
   AssignScene[6,4] link[8,6,4] 1 link[10,6,4] 1
   AssignScene[6,4] link[11,6,4] 1    
   AssignScene[14,4] assign_scene_def[14] 1 num_scenes_per_day[4] 1
   AssignScene[14,4] link[3,14,4] 1 link[7,14,4] 1
   AssignScene[18,4] assign_scene_def[18] 1 num_scenes_per_day[4] 1
   AssignScene[18,4] link[3,18,4] 1 link[6,18,4] 1
   AssignScene[18,4] link[8,18,4] 1 link[11,18,4] 1
   AssignScene[8,4] assign_scene_def[8] 1 num_scenes_per_day[4] 1
   AssignScene[8,4] link[4,8,4] 1 link[9,8,4] 1
   AssignScene[12,4] assign_scene_def[12] 1 num_scenes_per_day[4] 1
   AssignScene[12,4] link[4,12,4] 1 link[5,12,4] 1
   AssignScene[12,4] link[6,12,4] 1 link[8,12,4] 1
   AssignScene[12,4] link[11,12,4] 1    
   AssignScene[1,4] assign_scene_def[1] 1 num_scenes_per_day[4] 1
   AssignScene[1,4] link[6,1,4] 1    
   .MRK0001 'MARKER'   'INTEND'  
RHS  
   .RHS. assign_scene_def[2] 1    
   .RHS. assign_scene_def[5] 1    
   .RHS. assign_scene_def[7] 1    
   .RHS. assign_scene_def[10] 1    
   .RHS. assign_scene_def[11] 1    
   .RHS. assign_scene_def[13] 1    
   .RHS. assign_scene_def[15] 1    
   .RHS. assign_scene_def[17] 1    
   .RHS. assign_scene_def[4] 1    
   .RHS. assign_scene_def[9] 1    
   .RHS. assign_scene_def[16] 1    
   .RHS. assign_scene_def[19] 1    
   .RHS. assign_scene_def[3] 1    
   .RHS. assign_scene_def[6] 1    
   .RHS. assign_scene_def[14] 1    
   .RHS. assign_scene_def[18] 1    
   .RHS. assign_scene_def[8] 1    
   .RHS. assign_scene_def[12] 1    
   .RHS. assign_scene_def[1] 1    
   .RHS. num_scenes_per_day[1] 4    
   .RHS. num_scenes_per_day[2] 4    
   .RHS. num_scenes_per_day[3] 4    
   .RHS. num_scenes_per_day[4] 4    
RANGES  
   .RANGES. num_scenes_per_day[1] 1    
   .RANGES. num_scenes_per_day[2] 1    
   .RANGES. num_scenes_per_day[3] 1    
   .RANGES. num_scenes_per_day[4] 1    
BOUNDS  
 UP .BOUNDS. AssignActor[1,1] 1    
 UP .BOUNDS. AssignActor[2,1] 1    
 UP .BOUNDS. AssignActor[3,1] 1    
 UP .BOUNDS. AssignActor[4,1] 1    
 UP .BOUNDS. AssignActor[5,1] 1    
 UP .BOUNDS. AssignActor[6,1] 1    
 UP .BOUNDS. AssignActor[7,1] 1    
 UP .BOUNDS. AssignActor[8,1] 1    
 UP .BOUNDS. AssignActor[9,1] 1    
 UP .BOUNDS. AssignActor[10,1] 1    
 UP .BOUNDS. AssignActor[11,1] 1    
 UP .BOUNDS. AssignActor[1,2] 1    
 UP .BOUNDS. AssignActor[2,2] 1    
 UP .BOUNDS. AssignActor[3,2] 1    
 UP .BOUNDS. AssignActor[4,2] 1    
 UP .BOUNDS. AssignActor[5,2] 1    
 UP .BOUNDS. AssignActor[6,2] 1    
 UP .BOUNDS. AssignActor[7,2] 1    
 UP .BOUNDS. AssignActor[8,2] 1    
 UP .BOUNDS. AssignActor[9,2] 1    
 UP .BOUNDS. AssignActor[10,2] 1    
 UP .BOUNDS. AssignActor[11,2] 1    
 UP .BOUNDS. AssignActor[1,3] 1    
 UP .BOUNDS. AssignActor[2,3] 1    
 UP .BOUNDS. AssignActor[3,3] 1    
 UP .BOUNDS. AssignActor[4,3] 1    
 UP .BOUNDS. AssignActor[5,3] 1    
 UP .BOUNDS. AssignActor[6,3] 1    
 UP .BOUNDS. AssignActor[7,3] 1    
 UP .BOUNDS. AssignActor[8,3] 1    
 UP .BOUNDS. AssignActor[9,3] 1    
 UP .BOUNDS. AssignActor[10,3] 1    
 UP .BOUNDS. AssignActor[11,3] 1    
 UP .BOUNDS. AssignActor[1,4] 1    
 UP .BOUNDS. AssignActor[2,4] 1    
 UP .BOUNDS. AssignActor[3,4] 1    
 UP .BOUNDS. AssignActor[4,4] 1    
 UP .BOUNDS. AssignActor[5,4] 1    
 UP .BOUNDS. AssignActor[6,4] 1    
 UP .BOUNDS. AssignActor[7,4] 1    
 UP .BOUNDS. AssignActor[8,4] 1    
 UP .BOUNDS. AssignActor[9,4] 1    
 UP .BOUNDS. AssignActor[10,4] 1    
 UP .BOUNDS. AssignActor[11,4] 1    
 UP .BOUNDS. AssignScene[2,1] 1    
 UP .BOUNDS. AssignScene[5,1] 1    
 UP .BOUNDS. AssignScene[7,1] 1    
 UP .BOUNDS. AssignScene[10,1] 1    
 UP .BOUNDS. AssignScene[11,1] 1    
 UP .BOUNDS. AssignScene[13,1] 1    
 UP .BOUNDS. AssignScene[15,1] 1    
 UP .BOUNDS. AssignScene[17,1] 1    
 UP .BOUNDS. AssignScene[4,1] 1    
 UP .BOUNDS. AssignScene[9,1] 1    
 UP .BOUNDS. AssignScene[16,1] 1    
 UP .BOUNDS. AssignScene[19,1] 1    
 UP .BOUNDS. AssignScene[3,1] 1    
 UP .BOUNDS. AssignScene[6,1] 1    
 UP .BOUNDS. AssignScene[14,1] 1    
 UP .BOUNDS. AssignScene[18,1] 1    
 UP .BOUNDS. AssignScene[8,1] 1    
 UP .BOUNDS. AssignScene[12,1] 1    
 UP .BOUNDS. AssignScene[1,1] 1    
 UP .BOUNDS. AssignScene[2,2] 1    
 UP .BOUNDS. AssignScene[5,2] 1    
 UP .BOUNDS. AssignScene[7,2] 1    
 UP .BOUNDS. AssignScene[10,2] 1    
 UP .BOUNDS. AssignScene[11,2] 1    
 UP .BOUNDS. AssignScene[13,2] 1    
 UP .BOUNDS. AssignScene[15,2] 1    
 UP .BOUNDS. AssignScene[17,2] 1    
 UP .BOUNDS. AssignScene[4,2] 1    
 UP .BOUNDS. AssignScene[9,2] 1    
 UP .BOUNDS. AssignScene[16,2] 1    
 UP .BOUNDS. AssignScene[19,2] 1    
 UP .BOUNDS. AssignScene[3,2] 1    
 UP .BOUNDS. AssignScene[6,2] 1    
 UP .BOUNDS. AssignScene[14,2] 1    
 UP .BOUNDS. AssignScene[18,2] 1    
 UP .BOUNDS. AssignScene[8,2] 1    
 UP .BOUNDS. AssignScene[12,2] 1    
 UP .BOUNDS. AssignScene[1,2] 1    
 UP .BOUNDS. AssignScene[2,3] 1    
 UP .BOUNDS. AssignScene[5,3] 1    
 UP .BOUNDS. AssignScene[7,3] 1    
 UP .BOUNDS. AssignScene[10,3] 1    
 UP .BOUNDS. AssignScene[11,3] 1    
 UP .BOUNDS. AssignScene[13,3] 1    
 UP .BOUNDS. AssignScene[15,3] 1    
 UP .BOUNDS. AssignScene[17,3] 1    
 UP .BOUNDS. AssignScene[4,3] 1    
 UP .BOUNDS. AssignScene[9,3] 1    
 UP .BOUNDS. AssignScene[16,3] 1    
 UP .BOUNDS. AssignScene[19,3] 1    
 UP .BOUNDS. AssignScene[3,3] 1    
 UP .BOUNDS. AssignScene[6,3] 1    
 UP .BOUNDS. AssignScene[14,3] 1    
 UP .BOUNDS. AssignScene[18,3] 1    
 UP .BOUNDS. AssignScene[8,3] 1    
 UP .BOUNDS. AssignScene[12,3] 1    
 UP .BOUNDS. AssignScene[1,3] 1    
 UP .BOUNDS. AssignScene[2,4] 1    
 UP .BOUNDS. AssignScene[5,4] 1    
 UP .BOUNDS. AssignScene[7,4] 1    
 UP .BOUNDS. AssignScene[10,4] 1    
 UP .BOUNDS. AssignScene[11,4] 1    
 UP .BOUNDS. AssignScene[13,4] 1    
 UP .BOUNDS. AssignScene[15,4] 1    
 UP .BOUNDS. AssignScene[17,4] 1    
 UP .BOUNDS. AssignScene[4,4] 1    
 UP .BOUNDS. AssignScene[9,4] 1    
 UP .BOUNDS. AssignScene[16,4] 1    
 UP .BOUNDS. AssignScene[19,4] 1    
 UP .BOUNDS. AssignScene[3,4] 1    
 UP .BOUNDS. AssignScene[6,4] 1    
 UP .BOUNDS. AssignScene[14,4] 1    
 UP .BOUNDS. AssignScene[18,4] 1    
 UP .BOUNDS. AssignScene[8,4] 1    
 UP .BOUNDS. AssignScene[12,4] 1    
 UP .BOUNDS. AssignScene[1,4] 1    
ENDATA  
